0 53 57
1 34 60
2 61 65
3 61 67
4 58 69
5 59 71
6 66 69
7 59 69
8 55 70
9 65 69
10 60 70
11 64 69
12 67 68
13 67 67
14 58 69
15 58 68
16 48 66
17 57 63
18 44 60
19 49 58
20 54 60
21 45 61
22 55 58
23 52 56
24 48 54
25 54 53
26 46 50
27 47 46
28 34 38
29 31 42
30 40 45
31 23 43
32 42 45
33 39 43
34 27 42
35 29 39
36 38 37
37 19 35
38 31 31
39 19 29
40 24 28
41 11 26
42 14 24
43 17 21
44 14 19
45 12 18
46 17 17
47 14 17
48 5 14
49 9 13
50 5 14
51 12 13
52 10 14
53 6 13
54 7 10
55 5 6
56 2 5
57 3 3

